500
120 120
1 96 323
2 96 199
3 96 160
4 96 10
5 96 372
6 95 647
7 95 187
8 94 950
9 94 70
10 94 293
11 94 310
12 94 24
13 93 657
14 93 345
15 92 944
16 92 20
17 92 28
18 92 512
19 92 774
20 92 370
21 92 300
22 91 915
23 91 10
24 91 317
25 91 436
26 91 814
27 91 77
28 91 829
29 91 315
30 90 313
31 90 656
32 90 451
33 90 84
34 89 598
35 89 128
36 89 432
37 88 212
38 88 806
39 88 498
40 88 590
41 88 807
42 87 387
43 87 560
44 87 533
45 87 906
46 86 111
47 86 738
48 86 923
49 86 399
50 86 795
51 86 946
52 86 219
53 85 907
54 85 77
55 85 176
56 85 876
57 85 404
58 85 120
59 85 309
60 84 628
61 84 1000
62 84 234
63 84 839
64 84 94
65 84 328
66 84 885
67 84 829
68 83 991
69 83 133
70 83 76
71 83 734
72 83 104
73 83 409
74 82 954
75 82 991
76 82 494
77 82 797
78 82 129
79 81 89
80 81 841
81 81 354
82 81 412
83 81 951
84 81 259
85 81 643
86 81 138
87 81 844
88 81 191
89 80 905
90 80 178
91 80 928
92 80 353
93 80 474
94 80 685
95 79 412
96 79 553
97 79 725
98 79 867
99 79 903
100 79 622
101 79 369
102 79 128
103 79 68
104 78 485
105 78 698
106 78 420
107 78 104
108 77 648
109 77 354
110 77 879
111 77 552
112 77 239
113 77 214
114 77 252
115 77 786
116 77 858
117 77 387
118 77 61
119 77 315
120 76 627
121 76 937
122 76 16
123 76 131
124 76 699
125 76 815
126 76 214
127 76 365
128 76 542
129 76 169
130 76 25
131 76 8
132 75 559
133 75 892
134 75 746
135 75 481
136 75 530
137 75 443
138 75 190
139 75 186
140 74 615
141 74 575
142 74 9
143 74 136
144 74 504
145 74 78
146 74 774
147 74 307
148 74 607
149 73 297
150 73 404
151 72 961
152 72 566
153 72 486
154 72 130
155 72 10
156 72 152
157 71 478
158 71 672
159 71 234
160 71 322
161 71 580
162 71 771
163 70 1000
164 70 976
165 70 839
166 70 762
167 70 602
168 70 90
169 70 321
170 70 478
171 69 46
172 69 282
173 69 98
174 69 862
175 69 405
176 69 692
177 69 299
178 69 63
179 69 466
180 69 804
181 69 55
182 69 382
183 69 156
184 69 981
185 69 350
186 69 529
187 68 790
188 68 636
189 68 2
190 68 953
191 68 664
192 68 963
193 68 582
194 68 575
195 68 669
196 67 947
197 67 932
198 67 167
199 67 274
200 67 812
201 67 329
202 66 827
203 66 204
204 66 126
205 66 213
206 66 828
207 66 896
208 66 729
209 65 975
210 65 646
211 65 710
212 65 949
213 65 171
214 65 714
215 64 461
216 64 11
217 64 161
218 64 618
219 64 963
220 64 111
221 64 655
222 64 479
223 64 573
224 64 20
225 63 286
226 63 749
227 63 797
228 63 377
229 63 650
230 63 198
231 63 992
232 62 155
233 62 467
234 62 347
235 61 679
236 61 163
237 61 403
238 61 65
239 61 544
240 61 333
241 61 838
242 61 938
243 60 28
244 60 690
245 60 701
246 60 222
247 60 606
248 60 599
249 60 422
250 60 428
251 60 346
252 60 314
253 60 531
254 59 322
255 59 569
256 59 274
257 59 633
258 59 200
259 59 839
260 59 943
261 59 1
262 58 900
263 58 659
264 58 511
265 58 116
266 58 626
267 58 195
268 57 623
269 57 954
270 57 598
271 57 888
272 57 98
273 57 219
274 56 556
275 56 246
276 56 240
277 56 14
278 56 100
279 56 82
280 56 219
281 56 386
282 55 251
283 55 284
284 55 237
285 55 327
286 55 757
287 55 514
288 55 449
289 55 897
290 55 789
291 55 18
292 55 408
293 55 683
294 54 473
295 54 615
296 54 904
297 54 984
298 54 832
299 54 5
300 54 695
301 54 87
302 53 998
303 53 16
304 53 946
305 53 930
306 53 785
307 53 281
308 53 342
309 52 999
310 52 166
311 52 202
312 52 563
313 52 676
314 52 429
315 51 920
316 51 539
317 51 809
318 51 229
319 51 684
320 51 811
321 50 170
322 50 717
323 50 869
324 50 15
325 50 899
326 50 285
327 50 645
328 49 581
329 49 436
330 49 877
331 49 196
332 49 16
333 48 12
334 48 755
335 48 68
336 48 93
337 47 485
338 47 548
339 47 424
340 47 697
341 47 115
342 47 338
343 47 176
344 47 166
345 47 213
346 47 718
347 46 619
348 46 203
349 46 934
350 46 130
351 46 942
352 46 716
353 45 188
354 45 304
355 45 243
356 45 447
357 45 560
358 44 609
359 44 617
360 44 426
361 44 907
362 44 437
363 44 706
364 44 904
365 44 559
366 43 553
367 43 350
368 43 191
369 43 733
370 43 321
371 42 745
372 42 210
373 42 518
374 42 592
375 42 788
376 42 140
377 42 29
378 42 740
379 42 982
380 42 371
381 41 949
382 41 869
383 41 284
384 41 360
385 41 516
386 41 152
387 41 763
388 41 387
389 41 458
390 41 210
391 41 824
392 40 273
393 40 127
394 40 647
395 40 116
396 40 353
397 40 581
398 40 951
399 40 171
400 40 719
401 40 29
402 39 424
403 39 269
404 39 740
405 39 991
406 39 5
407 39 318
408 39 629
409 39 291
410 39 254
411 39 314
412 38 679
413 38 347
414 38 774
415 38 386
416 38 221
417 38 597
418 37 495
419 37 205
420 37 971
421 37 891
422 37 856
423 36 729
424 36 902
425 36 954
426 36 448
427 36 510
428 36 582
429 36 1000
430 36 932
431 36 777
432 36 545
433 36 952
434 35 360
435 35 195
436 35 167
437 35 15
438 35 394
439 34 337
440 34 961
441 34 778
442 34 96
443 33 284
444 33 743
445 33 562
446 33 112
447 33 366
448 32 301
449 32 160
450 32 832
451 32 292
452 32 251
453 32 262
454 32 169
455 31 244
456 31 558
457 31 630
458 31 362
459 31 19
460 31 318
461 31 527
462 31 346
463 31 878
464 31 179
465 30 19
466 30 183
467 30 49
468 30 835
469 30 51
470 30 354
471 30 736
472 30 402
473 29 422
474 29 772
475 29 307
476 28 683
477 28 67
478 28 143
479 27 337
480 27 889
481 27 383
482 27 495
483 27 164
484 27 473
485 27 842
486 27 420
487 26 163
488 26 805
489 26 865
490 26 38
491 26 513
492 25 656
493 25 698
494 24 940
495 24 942
496 24 281
497 24 233
498 24 242
499 24 731
500 24 845
